[VALIDATOR STDOUT]
Checking plan: /home/fjl2401/Safety-gen/benchmark_problems/spanner/optic_results/spanner-s7-n6-l10-s7002.plan
Plan executed successfully - checking goal
Goal not satisfied
Plan invalid


Failed plans:
 /home/fjl2401/Safety-gen/benchmark_problems/spanner/optic_results/spanner-s7-n6-l10-s7002.plan
